25 40
1 2 5
1 6 4
2 3 3
2 7 3
3 4 5
3 8 5
4 5 2
4 9 4
5 10 4
6 7 4
6 11 1
7 8 5
7 12 2
8 9 1
8 13 2
9 10 3
9 14 5
10 15 2
11 12 4
11 16 5
12 13 2
12 17 3
13 14 5
13 18 1
14 15 4
14 19 2
15 20 1
16 17 2
16 21 5
17 18 5
17 22 5
18 19 3
18 23 5
19 20 3
19 24 2
20 25 2
21 22 5
22 23 4
23 24 5
24 25 3
